CMD:
./solvers/bin/cadical --plain --no-reduce -t 1600 ./data/cnfs//6s109/6s109.38.cnf

c --- [ banner ] -------------------------------------------------------------
c 
c CaDiCaL SAT Solver
c Copyright (c) 2016-2024
c A. Biere, M. Fleury, N. Froleyks, K. Fazekas, F. Pollitt, T. Faller
c JKU Linz, University of Freiburg, TU Wien
c 
c Version 2.1.3 5296d3d2a9bf48c154ab2acb5e44625776d821bf
c g++ (Gentoo 12.3.1_p20230526 p2) 12.3.1 20230526 -Wall -Wextra -O3 -DNDEBUG
c Sat Aug 9 07:26:21 PDT 2025 Linux cedar2.int.cedar.computecanada.ca 5.14.0-362.24.2.el9_3.x86_64 x86_64
c 
c --- [ limit ] --------------------------------------------------------------
c 
c setting time limit to 1600 seconds real time (due to '-t 1600')
c 
c --- [ parsing input ] ------------------------------------------------------
c 
c reading DIMACS file from './data/cnfs//6s109/6s109.38.cnf'
c opening file to read './data/cnfs//6s109/6s109.38.cnf'
c found 'p cnf 355160 1063634' header
c parsed 1063634 clauses in 0.17 seconds process time
c 
c --- [ options ] ------------------------------------------------------------
c 
c   --compact=false                (different from default 'true')
c   --decompose=false              (different from default 'true')
c   --deduplicate=false            (different from default 'true')
c   --elim=false                   (different from default 'true')
c   --probe=false                  (different from default 'true')
c   --reduce=false                 (different from default 'true')
c   --subsume=false                (different from default 'true')
c   --ternary=false                (different from default 'true')
c   --transred=false               (different from default 'true')
c   --vivify=false                 (different from default 'true')
c 
c --- [ solving ] ------------------------------------------------------------
c 
c time measured in process time since initialization
c 
c  seconds   reductions  redundant   irredundant
c          MB    restarts       trail        variables
c           level   conflicts       glue           remaining
c 
c *  0.17 163  0 0   0    0    0  0% 0 1036867 337480 95%
c {  0.24 167  0 0   0    0    0  0% 0 1036867 337480 95%
c i  0.67 171 340 0  51  726  701 44% 2 1036867 337141 95%
c i  0.95 172 281 0  99  952  908 38% 3 1036867 337133 95%
c }  1.01 172 272 0 105 1002  954 38% 3 1036867 337133 95%
c [  1.01 172  0 0 105 1002  954  0% 0 1036867 337133 95%
c O  1.08 172 201 0 105 1003  955 94% 3 1036867 337133 95%
c ]  2.30 174 452 0 106 3003 2359 80% 49 1036867 337133 95%
c {  2.30 174 272 0 106 3003 2359 38% 3 1036867 337133 95%
c F  2.31 174 272 0 107 3004 2359 38% 3 1036867 337133 95%
c i  2.31 174 272 0 107 3004 2359 38% 3 1036867 337123 95%
c i  2.85 174 223 0 192 3352 2683 34% 3 1036867 337115 95%
c i  3.14 174 198 0 242 3596 2915 32% 3 1036867 337107 95%
c i  3.14 174 198 0 242 3598 2916 32% 3 1036867 337099 95%
c i  3.27 174 190 0 259 3709 3006 31% 3 1036867 337091 95%
c i  4.28 175 161 0 388 5023 4091 31% 3 1036867 337000 95%
c i  4.45 175 163 0 403 5173 4229 31% 4 1036867 336990 95%
c i  4.46 175 163 0 403 5174 4229 31% 4 1036867 336979 95%
c #  5.05 175 155 0 462 6006 4946 30% 4 1036867 336979 95%
c i  5.13 175 153 0 475 6165 5057 30% 5 1036867 336801 95%
c 
c  seconds    reductions  redundant   irredundant
c          MB     restarts       trail        variables
c            level   conflicts       glue           remaining
c 
c }  5.72 175 149 0 527 7006 5816 31% 4 1036867 336801 95%
c [  5.72 175 452 0 527 7006 5816 80% 49 1036867 336801 95%
c I  7.39 176 336 0 529 10012 8528 53% 24 1036867 336801 95%
c ] 11.00 180 398 0 532 15008 13050 54% 18 1036867 336801 95%
c { 11.00 180 149 0 532 15008 13050 31% 4 1036867 336801 95%
c B 11.02 180 149 0 532 15013 13055 31% 4 1036867 336801 95%
c i 12.72 180 149 0 655 16477 14356 31% 5 1036867 336713 95%
c i 13.96 181 136 0 736 18054 15704 29% 4 1036867 336705 95%
c W 17.30 188 126 0 990 21015 18218 30% 5 1002771 336705 95%
c i 17.44 188 126 0 995 21201 18381 30% 5 1002771 336704 95%
c i 20.08 188 125 0 1224 23888 20728 30% 5 1002771 336703 95%
c i 20.48 188 125 0 1245 24349 21136 30% 5 1002771 336693 95%
c i 20.49 188 125 0 1247 24361 21145 30% 5 1002771 336692 95%
c i 21.60 188 122 0 1367 25171 21712 30% 5 1002771 336603 95%
c i 22.35 188 122 0 1416 25947 22403 30% 5 1002771 336592 95%
c i 22.79 188 121 0 1458 26230 22651 30% 5 1002771 336582 95%
c F 24.48 188 120 0 1625 28016 24230 30% 5 1002771 336580 95%
c } 27.45 188 123 0 1850 31011 26808 30% 5 1002771 336580 95%
c [ 27.45 188 398 0 1850 31011 26808 54% 18 1002771 336580 95%
c B 31.75 188 388 0 1852 36018 31312 53% 16 1002771 336580 95%
c 
c  seconds    reductions     redundant    irredundant
c          MB     restarts          trail         variables
c            level     conflicts        glue            remaining
c 
c i 32.72 188 388 0 1853 37207 32325 53% 18 1002771 336569 95%
c W 42.02 238 381 0 1857 45019 38970 55% 18 1002168 336568 95%
c O 48.49 240 396 0 1858 55022 47408 46% 18 1002168 336568 95%
c ] 53.96 240 355 0 1864 63017 54574 44% 18 1002168 336568 95%
... skipped 42 lines ...
c  seconds    reductions       redundant   irredundant
c           MB     restarts            trail       variables
c            level      conflicts          glue          remaining
c 
c i 355.68 317 92 0 11428 286519 255201 26% 7 999169 335729 95%
c i 355.69 317 92 0 11428 286522 255202 26% 7 999169 335687 95%
c i 355.69 317 92 0 11428 286526 255205 26% 7 999169 335668 95%
c i 367.07 320 90 0 12111 293666 261592 26% 7 999169 335667 95%
c B 377.20 322 93 0 12666 300063 267289 26% 7 999169 335667 95%
c i 401.63 327 90 0 14059 315515 281098 26% 7 999169 335656 95%
c W 417.38 411 88 0 14826 325064 289700 26% 7 998698 335656 95%
c i 417.53 411 88 0 14830 325143 289774 26% 7 998698 335647 95%
c i 434.51 411 87 0 15762 337656 301016 25% 8 998698 335645 95%
c i 453.61 413 86 0 16774 350012 311987 25% 8 998698 335638 95%
c # 455.17 413 85 0 16837 351066 312876 25% 8 998698 335638 95%
c i 470.24 413 87 0 17607 360794 321592 25% 8 998698 335370 94%
c B 492.60 414 84 0 18530 378067 337062 25% 8 998698 335370 94%
c W 538.04 428 85 0 21008 406070 362117 25% 8 997524 335370 94%
c i 564.63 428 83 0 22310 423010 377273 24% 8 997524 334662 94%
c i 571.08 428 83 0 22614 427042 380918 24% 8 997524 334661 94%
c F 585.07 428 82 0 23268 435073 388101 24% 8 997524 334661 94%
c i 590.53 428 81 0 23507 438527 391258 24% 8 997524 334660 94%
c B 636.80 428 79 0 25462 465076 414924 25% 9 997524 334660 94%
c i 656.62 428 81 0 26310 476700 425481 25% 9 997524 334653 94%
c 
c  seconds    reductions       redundant   irredundant
c           MB     restarts            trail       variables
c            level      conflicts          glue          remaining
c 
c i 672.27 428 80 0 26865 485928 433791 25% 9 997524 334652 94%
c W 689.31 444 79 0 27576 496079 442793 25% 9 995082 334652 94%
c } 720.57 444 78 0 29038 511018 456315 25% 9 995082 334652 94%
c [ 720.57 444 310 0 29038 511018 456315 41% 40 995082 334652 94%
c W 746.28 444 294 0 29039 528080 472135 40% 45 995082 334652 94%
c I 796.40 444 283 0 29047 561083 501218 38% 65 995082 334652 94%
c B 864.66 442 225 0 29062 595088 530031 37% 56 995082 334652 94%
c W 946.73 465 195 0 29070 630089 560182 37% 59 995082 334652 94%
c O 1028.04 492 158 0 29085 666091 590174 36% 57 995082 334652 94%
c B 1096.88 514 152 0 29101 703092 623306 37% 55 995082 334652 94%
c W 1177.33 542 143 0 29102 741093 656440 39% 58 995082 334652 94%
c I 1259.08 566 126 0 29103 780097 690379 39% 54 995082 334652 94%
c B 1359.49 622 115 0 29103 820104 726835 39% 51 995082 334652 94%
c W 1442.74 661 124 0 29124 861105 764056 40% 48 995082 334652 94%
c O 1518.39 692 132 0 29134 903107 802675 40% 41 995082 334652 94%
c ] 1593.47 726 135 0 29149 933350 830285 41% 44 995082 334652 94%
c ? 1593.47 726 135 0 29149 933350 830285 41% 44 995082 334652 94%
c 
c --- [ result ] -------------------------------------------------------------
c 
c UNKNOWN
c 
c --- [ run-time profiling ] -------------------------------------------------
c 
c process time taken by individual solving procedures
c (percentage relative to process time for solving)
c 
c      1593.30  100.00% search
c      1077.05   67.60% stable
c       511.97   32.13% unstable
c         4.20    0.26% walk
c         0.17    0.01% parse
c         0.07    0.00% lucky
c         0.00    0.00% simplify
c   =================================
c      1593.30   99.99% solve
c 
c last line shows process time for solving
c (percentage relative to total process time)
c 
c --- [ statistics ] ---------------------------------------------------------
c 
c chronological:            327346        35.07 %  of conflicts
c conflicts:                933350       585.80    per second
c decisions:               4717295      2960.70    per second
c fixed:                     20508         5.77 %  of all variables
c learned:                  887271        95.06 %  per conflict
c learned_lits:          227236690       100.00 %  learned literals
c minimized:                     0         0.00 %  learned literals
c shrunken:               55944601        24.62 %  learned literals
c minishrunken:           53115514        23.37 %  learned literals
c otfs:                       3133         0.34 %  of conflict
c propagations:        10292753030         6.46 M  per second
c rephased:                     42     22222.62    interval
c restarts:                  29149        32.02    interval
c stabilizing:                   5        63.46 %  of conflicts
c subsumed:                  56011         2.91 %  of all clauses
c strengthened:               3053         0.16 %  of all clauses
c walked:                       13     71796.15    interval
c 
c seconds are measured in process time for solving
c 
c --- [ resources ] ----------------------------------------------------------
c 
c total process time since initialization:      1593.47    seconds
c total real time since initialization:         1600.00    seconds
c maximum resident set size of process:          725.57    MB
c 
c --- [ shutting down ] ------------------------------------------------------
c 
c exit 0
